% demand
num_movements = 36;
loading_factor = [1800, 1150, 1550, 1050, 1400, 1350, 2000, 1550, 900, 1750, 900, 1600, 1850, 1350, 1800, 1950, 1800, 1650, 1950, 1850, 950, 900, 1450, 1200, 1300, 950, 1950, 1800, 1600, 1600, 1900, 1350, 1750, 1800, 1350, 1950];
pickup_time = [0, 0, 0, 0, 0, 0, 0, 1, 1, 3, 3, 3, 3, 3, 3, 4, 4, 6, 6, 6, 6, 6, 6, 7, 8, 8, 8, 8, 8, 9, 9, 9, 10, 10, 10, 10];
delivery_time = [1, 2, 2, 2, 1, 1, 3, 3, 2, 7, 4, 4, 5, 5, 5, 5, 5, 7, 8, 7, 8, 7, 8, 11, 10, 9, 9, 9, 10, 11, 10, 11, 11, 11, 11, 11];

% transporter definition
total_capacity = 11000;
num_decks = 4;
capacity = [3000, 3000, 1000, 4000];

% ways out of decks
num_ways_out = 2;
paths_out = array3d(decks, ways_out, decks, [
% ways out of deck d1
2, 4, 0, 0, 3, 4, 0, 0, 

% ways out of deck d2
4, 0, 0, 0, 0, 0, 0, 0,	

% ways out of deck d3
4, 0, 0, 0, 0, 0, 0, 0,	

% ways out of deck d4
0, 0, 0, 0,	0, 0, 0, 0,	

]);

